c 
c G(n,p) graph
c graph gen seed     : 2782
c number of vertices : 30
c max number of edges: 500
c edge probability   : 0.200000
c data structure     : sparse
c
c           Graph Stats
c number of vertices  : 30
c nonisolated vertices: 30
c number of edges     : 81
c edge density        : 0.186207
c max degree          : 10
c avg degree          : 5.40
c min degree          : 2
p col 30 81
e 1 27
e 1 18
e 1 13
e 1 5
e 1 2
e 2 24
e 2 20
e 2 19
e 2 16
e 2 10
e 2 9
e 3 29
e 3 7
e 4 29
e 4 27
e 4 25
e 4 22
e 4 7
e 5 26
e 5 25
e 5 23
e 5 14
e 5 11
e 6 19
e 6 12
e 6 7
e 7 28
e 7 17
e 7 15
e 7 12
e 8 30
e 8 28
e 8 25
e 8 9
e 9 23
e 9 21
e 9 19
e 9 17
e 9 10
e 10 30
e 10 29
e 10 13
e 10 11
e 11 22
e 12 25
e 12 22
e 13 30
e 13 28
e 13 16
e 14 20
e 15 28
e 15 19
e 16 22
e 16 21
e 16 18
e 17 30
e 17 29
e 17 26
e 17 24
e 17 23
e 17 22
e 17 19
e 17 18
e 18 26
e 18 22
e 18 21
e 18 19
e 19 23
e 19 22
e 20 29
e 20 25
e 20 23
e 21 22
e 22 28
e 22 27
e 23 30
e 24 29
e 25 30
e 25 28
e 28 30
e 29 30
